smt_library/regfile/mul_cons.smt2
; SMT-LIBv2 description generated by Yosys 0.46+124 (git sha1 d1695ad99, g++ 15.0.0 -fPIC -O3)
; yosys-smt2-module smtlib_constraint
(declare-sort |smtlib_constraint_s| 0)
(declare-fun |smtlib_constraint_is| (|smtlib_constraint_s|) Bool)
(declare-fun |smtlib_constraint#0| (|smtlib_constraint_s|) (_ BitVec 8)) ; \a
; yosys-smt2-input a 8
; yosys-smt2-witness {"offset": 0, "path": ["\\a"], "smtname": "a", "smtoffset": 0, "type": "input", "width": 8}
(define-fun |smtlib_constraint_n a| ((state |smtlib_constraint_s|)) (_ BitVec 8) (|smtlib_constraint#0| state))
(declare-fun |smtlib_constraint#1| (|smtlib_constraint_s|) (_ BitVec 8)) ; \b
; yosys-smt2-input b 8
; yosys-smt2-witness {"offset": 0, "path": ["\\b"], "smtname": "b", "smtoffset": 0, "type": "input", "width": 8}
(define-fun |smtlib_constraint_n b| ((state |smtlib_constraint_s|)) (_ BitVec 8) (|smtlib_constraint#1| state))
(declare-fun |smtlib_constraint#2| (|smtlib_constraint_s|) (_ BitVec 8)) ; \x
; yosys-smt2-input x 8
; yosys-smt2-witness {"offset": 0, "path": ["\\x"], "smtname": "x", "smtoffset": 0, "type": "input", "width": 8}
(define-fun |smtlib_constraint_n x| ((state |smtlib_constraint_s|)) (_ BitVec 8) (|smtlib_constraint#2| state))
; yosys-smt2-output valid 1
; yosys-smt2-witness {"offset": 0, "path": ["\\valid"], "smtname": "valid", "smtoffset": 0, "type": "blackbox", "width": 1}
(define-fun |smtlib_constraint_n valid| ((state |smtlib_constraint_s|)) Bool (let (
(|a| (|smtlib_constraint_n a| state))
(|b| (|smtlib_constraint_n b| state))
(|x| (|smtlib_constraint_n x| state))
)
    
))
(define-fun |smtlib_constraint_a| ((state |smtlib_constraint_s|)) Bool true)
(define-fun |smtlib_constraint_u| ((state |smtlib_constraint_s|)) Bool true)
(define-fun |smtlib_constraint_i| ((state |smtlib_constraint_s|)) Bool true)
(define-fun |smtlib_constraint_h| ((state |smtlib_constraint_s|)) Bool true)
(define-fun |smtlib_constraint_t| ((state |smtlib_constraint_s|) (next_state |smtlib_constraint_s|)) Bool true) ; end of module smtlib_constraint
; yosys-smt2-module smtlib_wrapper
(declare-sort |smtlib_wrapper_s| 0)
(declare-fun |smtlib_wrapper_is| (|smtlib_wrapper_s|) Bool)
(declare-fun |smtlib_wrapper#0| (|smtlib_wrapper_s|) (_ BitVec 8)) ; \a
; yosys-smt2-input a 8
; yosys-smt2-witness {"offset": 0, "path": ["\\a"], "smtname": "a", "smtoffset": 0, "type": "input", "width": 8}
(define-fun |smtlib_wrapper_n a| ((state |smtlib_wrapper_s|)) (_ BitVec 8) (|smtlib_wrapper#0| state))
(declare-fun |smtlib_wrapper#1| (|smtlib_wrapper_s|) (_ BitVec 8)) ; \b
; yosys-smt2-input b 8
; yosys-smt2-witness {"offset": 0, "path": ["\\b"], "smtname": "b", "smtoffset": 0, "type": "input", "width": 8}
(define-fun |smtlib_wrapper_n b| ((state |smtlib_wrapper_s|)) (_ BitVec 8) (|smtlib_wrapper#1| state))
; yosys-smt2-anyseq smtlib_wrapper#2 8 mul_constraints_example.v:26.16-26.23
; yosys-smt2-witness {"offset": 0, "path": ["\\x"], "smtname": 2, "smtoffset": 0, "type": "seq", "width": 8}
(declare-fun |smtlib_wrapper#2| (|smtlib_wrapper_s|) (_ BitVec 8)) ; \x
; yosys-smt2-output x 8
(define-fun |smtlib_wrapper_n x| ((state |smtlib_wrapper_s|)) (_ BitVec 8) (|smtlib_wrapper#2| state))
; yosys-smt2-cell smtlib_constraint constraint
; yosys-smt2-witness {"path": ["\\constraint"], "smtname": "constraint", "type": "cell"}
(declare-fun |smtlib_wrapper#3| (|smtlib_wrapper_s|) Bool) ; \valid
(declare-fun |smtlib_wrapper_h constraint| (|smtlib_wrapper_s|) |smtlib_constraint_s|)
(define-fun |smtlib_wrapper_a| ((state |smtlib_wrapper_s|)) Bool 
  (|smtlib_constraint_a| (|smtlib_wrapper_h constraint| state))
)
(define-fun |smtlib_wrapper_u| ((state |smtlib_wrapper_s|)) Bool 
  (|smtlib_constraint_u| (|smtlib_wrapper_h constraint| state))
)
(define-fun |smtlib_wrapper_i| ((state |smtlib_wrapper_s|)) Bool 
  (|smtlib_constraint_i| (|smtlib_wrapper_h constraint| state))
)
(define-fun |smtlib_wrapper_h| ((state |smtlib_wrapper_s|)) Bool (and
  (= (|smtlib_wrapper_is| state) (|smtlib_constraint_is| (|smtlib_wrapper_h constraint| state)))
  (= (|smtlib_wrapper#0| state) (|smtlib_constraint_n a| (|smtlib_wrapper_h constraint| state))) ; smtlib_constraint.a
  (= (|smtlib_wrapper#1| state) (|smtlib_constraint_n b| (|smtlib_wrapper_h constraint| state))) ; smtlib_constraint.b
  (= (|smtlib_wrapper#3| state) (|smtlib_constraint_n valid| (|smtlib_wrapper_h constraint| state))) ; smtlib_constraint.valid
  (= (|smtlib_wrapper#2| state) (|smtlib_constraint_n x| (|smtlib_wrapper_h constraint| state))) ; smtlib_constraint.x
  (|smtlib_constraint_h| (|smtlib_wrapper_h constraint| state))
))
(define-fun |smtlib_wrapper_t| ((state |smtlib_wrapper_s|) (next_state |smtlib_wrapper_s|)) Bool 
  (|smtlib_constraint_t| (|smtlib_wrapper_h constraint| state) (|smtlib_wrapper_h constraint| next_state))
) ; end of module smtlib_wrapper
; yosys-smt2-topmod smtlib_wrapper
; end of yosys output
